NAME: instance_3162
TYPE: TSP
DIMENSION: 20
EDGE_WEIGHT_TYPE: EUC_2D
NODE_COORD_SECTION
0 7.54 72.28
1 88.95 46.26
2 88.52 66.90
3 81.97 98.13
4 27.09 17.65
5 32.86 45.13
6 54.70 6.84
7 5.22 45.08
8 93.39 36.52
9 71.90 81.37
10 15.44 80.89
11 64.84 76.53
12 11.03 61.01
13 17.56 33.46
14 58.82 9.00
15 53.26 24.36
16 38.17 67.61
17 66.02 26.54
18 20.93 13.49
19 67.26 61.95
EOF
